c CNF file corresponding to a (partial) station packing problem.
p cnf 2665 229
1 2 3 4 5 6 7 8 9 10 11 12 13 14 0
-1 -2 0
-1 -3 0
-1 -4 0
-1 -5 0
-1 -6 0
-1 -7 0
-1 -8 0
-1 -9 0
-1 -10 0
-1 -11 0
-1 -12 0
-1 -13 0
-1 -14 0
-2 -3 0
-2 -4 0
-2 -5 0
-2 -6 0
-2 -7 0
-2 -8 0
-2 -9 0
-2 -10 0
-2 -11 0
-2 -12 0
-2 -13 0
-2 -14 0
-3 -4 0
-3 -5 0
-3 -6 0
-3 -7 0
-3 -8 0
-3 -9 0
-3 -10 0
-3 -11 0
-3 -12 0
-3 -13 0
-3 -14 0
-4 -5 0
-4 -6 0
-4 -7 0
-4 -8 0
-4 -9 0
-4 -10 0
-4 -11 0
-4 -12 0
-4 -13 0
-4 -14 0
-5 -6 0
-5 -7 0
-5 -8 0
-5 -9 0
-5 -10 0
-5 -11 0
-5 -12 0
-5 -13 0
-5 -14 0
-6 -7 0
-6 -8 0
-6 -9 0
-6 -10 0
-6 -11 0
-6 -12 0
-6 -13 0
-6 -14 0
-7 -8 0
-7 -9 0
-7 -10 0
-7 -11 0
-7 -12 0
-7 -13 0
-7 -14 0
-8 -9 0
-8 -10 0
-8 -11 0
-8 -12 0
-8 -13 0
-8 -14 0
-9 -10 0
-9 -11 0
-9 -12 0
-9 -13 0
-9 -14 0
-10 -11 0
-10 -12 0
-10 -13 0
-10 -14 0
-11 -12 0
-11 -13 0
-11 -14 0
-12 -13 0
-12 -14 0
-13 -14 0
2649 2650 2651 2652 2653 2654 2655 2656 2657 2658 2659 2660 2661 2662 2663 2664 2665 0
-2649 -2650 0
-2649 -2651 0
-2649 -2652 0
-2649 -2653 0
-2649 -2654 0
-2649 -2655 0
-2649 -2656 0
-2649 -2657 0
-2649 -2658 0
-2649 -2659 0
-2649 -2660 0
-2649 -2661 0
-2649 -2662 0
-2649 -2663 0
-2649 -2664 0
-2649 -2665 0
-2650 -2651 0
-2650 -2652 0
-2650 -2653 0
-2650 -2654 0
-2650 -2655 0
-2650 -2656 0
-2650 -2657 0
-2650 -2658 0
-2650 -2659 0
-2650 -2660 0
-2650 -2661 0
-2650 -2662 0
-2650 -2663 0
-2650 -2664 0
-2650 -2665 0
-2651 -2652 0
-2651 -2653 0
-2651 -2654 0
-2651 -2655 0
-2651 -2656 0
-2651 -2657 0
-2651 -2658 0
-2651 -2659 0
-2651 -2660 0
-2651 -2661 0
-2651 -2662 0
-2651 -2663 0
-2651 -2664 0
-2651 -2665 0
-2652 -2653 0
-2652 -2654 0
-2652 -2655 0
-2652 -2656 0
-2652 -2657 0
-2652 -2658 0
-2652 -2659 0
-2652 -2660 0
-2652 -2661 0
-2652 -2662 0
-2652 -2663 0
-2652 -2664 0
-2652 -2665 0
-2653 -2654 0
-2653 -2655 0
-2653 -2656 0
-2653 -2657 0
-2653 -2658 0
-2653 -2659 0
-2653 -2660 0
-2653 -2661 0
-2653 -2662 0
-2653 -2663 0
-2653 -2664 0
-2653 -2665 0
-2654 -2655 0
-2654 -2656 0
-2654 -2657 0
-2654 -2658 0
-2654 -2659 0
-2654 -2660 0
-2654 -2661 0
-2654 -2662 0
-2654 -2663 0
-2654 -2664 0
-2654 -2665 0
-2655 -2656 0
-2655 -2657 0
-2655 -2658 0
-2655 -2659 0
-2655 -2660 0
-2655 -2661 0
-2655 -2662 0
-2655 -2663 0
-2655 -2664 0
-2655 -2665 0
-2656 -2657 0
-2656 -2658 0
-2656 -2659 0
-2656 -2660 0
-2656 -2661 0
-2656 -2662 0
-2656 -2663 0
-2656 -2664 0
-2656 -2665 0
-2657 -2658 0
-2657 -2659 0
-2657 -2660 0
-2657 -2661 0
-2657 -2662 0
-2657 -2663 0
-2657 -2664 0
-2657 -2665 0
-2658 -2659 0
-2658 -2660 0
-2658 -2661 0
-2658 -2662 0
-2658 -2663 0
-2658 -2664 0
-2658 -2665 0
-2659 -2660 0
-2659 -2661 0
-2659 -2662 0
-2659 -2663 0
-2659 -2664 0
-2659 -2665 0
-2660 -2661 0
-2660 -2662 0
-2660 -2663 0
-2660 -2664 0
-2660 -2665 0
-2661 -2662 0
-2661 -2663 0
-2661 -2664 0
-2661 -2665 0
-2662 -2663 0
-2662 -2664 0
-2662 -2665 0
-2663 -2664 0
-2663 -2665 0
-2664 -2665 0
